language Essence 1.3
letting nnodes be 110
letting nrings be 55
letting capacity be 41
letting demand be 
{{1, 3},
{1, 9},
{1, 12},
{1, 13},
{1, 15},
{1, 17},
{1, 19},
{1, 22},
{1, 23},
{1, 26},
{1, 29},
{1, 30},
{1, 32},
{1, 34},
{1, 35},
{1, 37},
{1, 38},
{1, 41},
{1, 44},
{1, 45},
{1, 46},
{1, 47},
{1, 48},
{1, 49},
{1, 50},
{1, 51},
{1, 53},
{1, 54},
{1, 55},
{1, 57},
{1, 60},
{1, 62},
{1, 64},
{1, 70},
{1, 71},
{1, 72},
{1, 75},
{1, 76},
{1, 78},
{1, 79},
{1, 80},
{1, 83},
{1, 85},
{1, 89},
{1, 90},
{1, 95},
{1, 96},
{1, 97},
{1, 98},
{1, 100},
{1, 104},
{1, 105},
{1, 108},
{2, 3},
{2, 5},
{2, 6},
{2, 7},
{2, 8},
{2, 11},
{2, 12},
{2, 15},
{2, 16},
{2, 17},
{2, 18},
{2, 19},
{2, 23},
{2, 26},
{2, 28},
{2, 29},
{2, 30},
{2, 32},
{2, 34},
{2, 35},
{2, 36},
{2, 37},
{2, 38},
{2, 42},
{2, 45},
{2, 46},
{2, 48},
{2, 50},
{2, 51},
{2, 52},
{2, 53},
{2, 55},
{2, 56},
{2, 57},
{2, 58},
{2, 60},
{2, 61},
{2, 62},
{2, 65},
{2, 67},
{2, 74},
{2, 79},
{2, 83},
{2, 88},
{2, 89},
{2, 91},
{2, 92},
{2, 93},
{2, 94},
{2, 95},
{2, 96},
{2, 97},
{2, 98},
{2, 100},
{2, 103},
{2, 106},
{2, 108},
{2, 109},
{2, 110},
{3, 4},
{3, 7},
{3, 8},
{3, 10},
{3, 11},
{3, 12},
{3, 13},
{3, 15},
{3, 16},
{3, 18},
{3, 19},
{3, 24},
{3, 27},
{3, 29},
{3, 37},
{3, 38},
{3, 45},
{3, 46},
{3, 47},
{3, 49},
{3, 53},
{3, 54},
{3, 55},
{3, 59},
{3, 61},
{3, 63},
{3, 64},
{3, 65},
{3, 67},
{3, 73},
{3, 74},
{3, 75},
{3, 77},
{3, 78},
{3, 79},
{3, 81},
{3, 85},
{3, 89},
{3, 90},
{3, 91},
{3, 93},
{3, 94},
{3, 97},
{3, 101},
{3, 103},
{3, 104},
{3, 107},
{3, 109},
{3, 110},
{4, 6},
{4, 8},
{4, 13},
{4, 15},
{4, 19},
{4, 20},
{4, 22},
{4, 26},
{4, 28},
{4, 29},
{4, 31},
{4, 33},
{4, 38},
{4, 42},
{4, 44},
{4, 47},
{4, 48},
{4, 50},
{4, 51},
{4, 53},
{4, 54},
{4, 55},
{4, 61},
{4, 64},
{4, 65},
{4, 66},
{4, 67},
{4, 68},
{4, 69},
{4, 74},
{4, 75},
{4, 76},
{4, 77},
{4, 78},
{4, 81},
{4, 84},
{4, 86},
{4, 87},
{4, 88},
{4, 91},
{4, 92},
{4, 93},
{4, 96},
{4, 98},
{4, 99},
{4, 106},
{4, 107},
{4, 110},
{5, 7},
{5, 8},
{5, 9},
{5, 10},
{5, 11},
{5, 16},
{5, 17},
{5, 19},
{5, 22},
{5, 25},
{5, 26},
{5, 29},
{5, 30},
{5, 36},
{5, 37},
{5, 38},
{5, 40},
{5, 41},
{5, 42},
{5, 45},
{5, 46},
{5, 47},
{5, 50},
{5, 52},
{5, 55},
{5, 56},
{5, 59},
{5, 63},
{5, 64},
{5, 65},
{5, 66},
{5, 67},
{5, 72},
{5, 75},
{5, 76},
{5, 83},
{5, 87},
{5, 88},
{5, 91},
{5, 92},
{5, 93},
{5, 94},
{5, 95},
{5, 97},
{5, 98},
{5, 101},
{5, 103},
{5, 105},
{5, 109},
{5, 110},
{6, 8},
{6, 9},
{6, 11},
{6, 12},
{6, 13},
{6, 19},
{6, 20},
{6, 22},
{6, 23},
{6, 26},
{6, 27},
{6, 29},
{6, 30},
{6, 31},
{6, 32},
{6, 35},
{6, 36},
{6, 37},
{6, 38},
{6, 42},
{6, 48},
{6, 49},
{6, 52},
{6, 55},
{6, 61},
{6, 65},
{6, 66},
{6, 67},
{6, 68},
{6, 69},
{6, 73},
{6, 75},
{6, 77},
{6, 79},
{6, 81},
{6, 82},
{6, 83},
{6, 84},
{6, 88},
{6, 91},
{6, 92},
{6, 94},
{6, 98},
{6, 99},
{6, 100},
{6, 106},
{6, 110},
{7, 9},
{7, 11},
{7, 12},
{7, 13},
{7, 14},
{7, 15},
{7, 18},
{7, 19},
{7, 20},
{7, 21},
{7, 22},
{7, 25},
{7, 26},
{7, 29},
{7, 30},
{7, 31},
{7, 32},
{7, 35},
{7, 36},
{7, 39},
{7, 40},
{7, 49},
{7, 50},
{7, 52},
{7, 53},
{7, 58},
{7, 59},
{7, 60},
{7, 61},
{7, 62},
{7, 63},
{7, 64},
{7, 65},
{7, 68},
{7, 70},
{7, 72},
{7, 74},
{7, 76},
{7, 77},
{7, 78},
{7, 79},
{7, 84},
{7, 86},
{7, 87},
{7, 88},
{7, 89},
{7, 94},
{7, 96},
{7, 98},
{7, 99},
{7, 100},
{7, 102},
{7, 104},
{7, 105},
{7, 106},
{7, 107},
{7, 108},
{7, 109},
{7, 110},
{8, 10},
{8, 12},
{8, 13},
{8, 16},
{8, 19},
{8, 22},
{8, 26},
{8, 29},
{8, 30},
{8, 31},
{8, 32},
{8, 33},
{8, 34},
{8, 35},
{8, 37},
{8, 39},
{8, 40},
{8, 41},
{8, 44},
{8, 46},
{8, 47},
{8, 49},
{8, 50},
{8, 51},
{8, 52},
{8, 53},
{8, 56},
{8, 58},
{8, 59},
{8, 60},
{8, 65},
{8, 66},
{8, 67},
{8, 69},
{8, 75},
{8, 77},
{8, 79},
{8, 80},
{8, 84},
{8, 85},
{8, 87},
{8, 88},
{8, 90},
{8, 91},
{8, 93},
{8, 94},
{8, 95},
{8, 97},
{8, 98},
{8, 99},
{8, 100},
{8, 101},
{8, 103},
{8, 105},
{8, 106},
{8, 108},
{8, 109},
{9, 12},
{9, 13},
{9, 14},
{9, 16},
{9, 20},
{9, 21},
{9, 22},
{9, 26},
{9, 31},
{9, 33},
{9, 34},
{9, 35},
{9, 38},
{9, 39},
{9, 40},
{9, 41},
{9, 44},
{9, 47},
{9, 53},
{9, 55},
{9, 56},
{9, 57},
{9, 61},
{9, 62},
{9, 63},
{9, 64},
{9, 66},
{9, 68},
{9, 72},
{9, 73},
{9, 74},
{9, 76},
{9, 78},
{9, 79},
{9, 80},
{9, 81},
{9, 83},
{9, 90},
{9, 92},
{9, 95},
{9, 101},
{9, 103},
{9, 104},
{9, 105},
{9, 110},
{10, 12},
{10, 16},
{10, 20},
{10, 24},
{10, 25},
{10, 26},
{10, 27},
{10, 29},
{10, 33},
{10, 34},
{10, 35},
{10, 38},
{10, 42},
{10, 43},
{10, 44},
{10, 45},
{10, 46},
{10, 47},
{10, 49},
{10, 51},
{10, 52},
{10, 53},
{10, 56},
{10, 58},
{10, 59},
{10, 60},
{10, 62},
{10, 64},
{10, 65},
{10, 67},
{10, 69},
{10, 75},
{10, 76},
{10, 78},
{10, 80},
{10, 81},
{10, 83},
{10, 85},
{10, 86},
{10, 90},
{10, 91},
{10, 93},
{10, 96},
{10, 99},
{10, 100},
{10, 103},
{10, 105},
{10, 107},
{11, 12},
{11, 16},
{11, 17},
{11, 22},
{11, 24},
{11, 25},
{11, 26},
{11, 27},
{11, 28},
{11, 29},
{11, 31},
{11, 34},
{11, 35},
{11, 37},
{11, 39},
{11, 40},
{11, 44},
{11, 45},
{11, 46},
{11, 49},
{11, 50},
{11, 53},
{11, 54},
{11, 55},
{11, 60},
{11, 61},
{11, 64},
{11, 65},
{11, 66},
{11, 67},
{11, 69},
{11, 70},
{11, 71},
{11, 75},
{11, 77},
{11, 78},
{11, 83},
{11, 88},
{11, 89},
{11, 92},
{11, 93},
{11, 94},
{11, 95},
{11, 98},
{11, 99},
{11, 101},
{11, 102},
{11, 103},
{11, 105},
{11, 106},
{11, 107},
{11, 108},
{11, 110},
{12, 13},
{12, 16},
{12, 19},
{12, 21},
{12, 22},
{12, 23},
{12, 26},
{12, 27},
{12, 35},
{12, 36},
{12, 37},
{12, 38},
{12, 40},
{12, 41},
{12, 48},
{12, 49},
{12, 52},
{12, 56},
{12, 57},
{12, 58},
{12, 61},
{12, 64},
{12, 66},
{12, 68},
{12, 74},
{12, 77},
{12, 81},
{12, 85},
{12, 87},
{12, 88},
{12, 92},
{12, 101},
{12, 103},
{12, 106},
{12, 109},
{12, 110},
{13, 14},
{13, 15},
{13, 16},
{13, 20},
{13, 21},
{13, 24},
{13, 25},
{13, 26},
{13, 28},
{13, 30},
{13, 33},
{13, 34},
{13, 36},
{13, 37},
{13, 40},
{13, 42},
{13, 47},
{13, 48},
{13, 49},
{13, 50},
{13, 52},
{13, 53},
{13, 55},
{13, 58},
{13, 59},
{13, 61},
{13, 63},
{13, 64},
{13, 65},
{13, 67},
{13, 71},
{13, 72},
{13, 73},
{13, 74},
{13, 75},
{13, 76},
{13, 81},
{13, 82},
{13, 83},
{13, 85},
{13, 86},
{13, 87},
{13, 89},
{13, 90},
{13, 91},
{13, 94},
{13, 96},
{13, 97},
{13, 99},
{13, 100},
{13, 101},
{13, 102},
{13, 106},
{13, 109},
{13, 110},
{14, 15},
{14, 16},
{14, 18},
{14, 19},
{14, 20},
{14, 22},
{14, 28},
{14, 29},
{14, 30},
{14, 31},
{14, 34},
{14, 35},
{14, 36},
{14, 43},
{14, 44},
{14, 45},
{14, 47},
{14, 51},
{14, 52},
{14, 54},
{14, 56},
{14, 62},
{14, 63},
{14, 64},
{14, 65},
{14, 66},
{14, 67},
{14, 69},
{14, 71},
{14, 72},
{14, 74},
{14, 76},
{14, 77},
{14, 78},
{14, 80},
{14, 81},
{14, 82},
{14, 83},
{14, 84},
{14, 85},
{14, 87},
{14, 89},
{14, 91},
{14, 98},
{14, 101},
{14, 104},
{14, 105},
{14, 107},
{14, 110},
{15, 19},
{15, 23},
{15, 24},
{15, 27},
{15, 30},
{15, 33},
{15, 34},
{15, 35},
{15, 40},
{15, 41},
{15, 42},
{15, 48},
{15, 49},
{15, 50},
{15, 51},
{15, 52},
{15, 53},
{15, 54},
{15, 57},
{15, 59},
{15, 61},
{15, 62},
{15, 63},
{15, 65},
{15, 66},
{15, 67},
{15, 68},
{15, 71},
{15, 72},
{15, 73},
{15, 75},
{15, 79},
{15, 80},
{15, 81},
{15, 84},
{15, 87},
{15, 88},
{15, 93},
{15, 95},
{15, 98},
{15, 99},
{15, 100},
{15, 103},
{15, 104},
{15, 106},
{15, 108},
{16, 17},
{16, 21},
{16, 22},
{16, 23},
{16, 27},
{16, 28},
{16, 33},
{16, 34},
{16, 35},
{16, 36},
{16, 37},
{16, 39},
{16, 40},
{16, 45},
{16, 46},
{16, 51},
{16, 54},
{16, 55},
{16, 56},
{16, 60},
{16, 63},
{16, 64},
{16, 65},
{16, 70},
{16, 71},
{16, 76},
{16, 78},
{16, 80},
{16, 82},
{16, 84},
{16, 85},
{16, 88},
{16, 91},
{16, 94},
{16, 95},
{16, 96},
{16, 97},
{16, 98},
{16, 100},
{16, 104},
{16, 107},
{16, 110},
{17, 19},
{17, 20},
{17, 26},
{17, 27},
{17, 30},
{17, 31},
{17, 32},
{17, 33},
{17, 38},
{17, 40},
{17, 43},
{17, 44},
{17, 48},
{17, 51},
{17, 53},
{17, 55},
{17, 57},
{17, 58},
{17, 59},
{17, 60},
{17, 63},
{17, 64},
{17, 67},
{17, 68},
{17, 70},
{17, 71},
{17, 73},
{17, 75},
{17, 78},
{17, 81},
{17, 82},
{17, 83},
{17, 89},
{17, 92},
{17, 95},
{17, 96},
{17, 98},
{17, 100},
{17, 101},
{17, 104},
{17, 108},
{17, 110},
{18, 19},
{18, 21},
{18, 22},
{18, 23},
{18, 24},
{18, 25},
{18, 31},
{18, 32},
{18, 33},
{18, 35},
{18, 38},
{18, 41},
{18, 42},
{18, 44},
{18, 47},
{18, 48},
{18, 54},
{18, 55},
{18, 58},
{18, 60},
{18, 62},
{18, 64},
{18, 68},
{18, 71},
{18, 72},
{18, 74},
{18, 76},
{18, 80},
{18, 86},
{18, 89},
{18, 93},
{18, 94},
{18, 96},
{18, 97},
{18, 100},
{18, 101},
{18, 104},
{18, 105},
{18, 108},
{18, 110},
{19, 21},
{19, 23},
{19, 24},
{19, 27},
{19, 28},
{19, 29},
{19, 34},
{19, 37},
{19, 39},
{19, 40},
{19, 44},
{19, 46},
{19, 47},
{19, 48},
{19, 49},
{19, 51},
{19, 53},
{19, 54},
{19, 55},
{19, 56},
{19, 58},
{19, 59},
{19, 61},
{19, 65},
{19, 68},
{19, 73},
{19, 75},
{19, 83},
{19, 85},
{19, 87},
{19, 91},
{19, 93},
{19, 95},
{19, 96},
{19, 97},
{19, 98},
{19, 99},
{19, 101},
{19, 102},
{19, 103},
{19, 104},
{19, 108},
{20, 22},
{20, 23},
{20, 24},
{20, 25},
{20, 27},
{20, 31},
{20, 33},
{20, 34},
{20, 35},
{20, 36},
{20, 39},
{20, 46},
{20, 51},
{20, 52},
{20, 53},
{20, 55},
{20, 56},
{20, 58},
{20, 59},
{20, 61},
{20, 63},
{20, 65},
{20, 67},
{20, 70},
{20, 71},
{20, 79},
{20, 82},
{20, 83},
{20, 84},
{20, 85},
{20, 86},
{20, 87},
{20, 94},
{20, 97},
{20, 98},
{20, 101},
{20, 102},
{20, 103},
{20, 104},
{20, 106},
{20, 107},
{20, 108},
{20, 110},
{21, 22},
{21, 23},
{21, 24},
{21, 29},
{21, 32},
{21, 33},
{21, 35},
{21, 36},
{21, 37},
{21, 38},
{21, 39},
{21, 40},
{21, 42},
{21, 45},
{21, 49},
{21, 50},
{21, 52},
{21, 54},
{21, 56},
{21, 57},
{21, 58},
{21, 60},
{21, 62},
{21, 64},
{21, 68},
{21, 71},
{21, 76},
{21, 77},
{21, 79},
{21, 85},
{21, 92},
{21, 93},
{21, 94},
{21, 98},
{21, 99},
{21, 100},
{21, 103},
{21, 104},
{21, 105},
{21, 106},
{21, 108},
{21, 110},
{22, 23},
{22, 25},
{22, 28},
{22, 29},
{22, 32},
{22, 33},
{22, 35},
{22, 36},
{22, 37},
{22, 40},
{22, 41},
{22, 44},
{22, 45},
{22, 48},
{22, 49},
{22, 50},
{22, 52},
{22, 53},
{22, 55},
{22, 56},
{22, 57},
{22, 58},
{22, 62},
{22, 64},
{22, 67},
{22, 68},
{22, 71},
{22, 75},
{22, 77},
{22, 81},
{22, 82},
{22, 83},
{22, 87},
{22, 90},
{22, 91},
{22, 92},
{22, 94},
{22, 95},
{22, 103},
{22, 105},
{22, 106},
{22, 108},
{23, 24},
{23, 26},
{23, 27},
{23, 28},
{23, 30},
{23, 38},
{23, 40},
{23, 41},
{23, 42},
{23, 47},
{23, 50},
{23, 51},
{23, 52},
{23, 53},
{23, 54},
{23, 55},
{23, 57},
{23, 59},
{23, 61},
{23, 62},
{23, 63},
{23, 66},
{23, 67},
{23, 71},
{23, 72},
{23, 74},
{23, 75},
{23, 79},
{23, 82},
{23, 83},
{23, 90},
{23, 91},
{23, 93},
{23, 95},
{23, 101},
{23, 102},
{23, 105},
{23, 106},
{23, 108},
{23, 109},
{24, 26},
{24, 27},
{24, 28},
{24, 29},
{24, 30},
{24, 34},
{24, 35},
{24, 37},
{24, 38},
{24, 39},
{24, 40},
{24, 42},
{24, 43},
{24, 44},
{24, 46},
{24, 49},
{24, 50},
{24, 52},
{24, 53},
{24, 56},
{24, 61},
{24, 62},
{24, 64},
{24, 68},
{24, 69},
{24, 73},
{24, 75},
{24, 77},
{24, 83},
{24, 84},
{24, 85},
{24, 86},
{24, 90},
{24, 91},
{24, 92},
{24, 93},
{24, 94},
{24, 95},
{24, 97},
{24, 99},
{24, 101},
{24, 104},
{24, 105},
{24, 109},
{25, 26},
{25, 27},
{25, 28},
{25, 29},
{25, 30},
{25, 33},
{25, 34},
{25, 35},
{25, 37},
{25, 38},
{25, 39},
{25, 41},
{25, 44},
{25, 46},
{25, 48},
{25, 50},
{25, 51},
{25, 53},
{25, 54},
{25, 55},
{25, 56},
{25, 58},
{25, 59},
{25, 60},
{25, 62},
{25, 64},
{25, 65},
{25, 66},
{25, 67},
{25, 68},
{25, 69},
{25, 70},
{25, 71},
{25, 73},
{25, 74},
{25, 75},
{25, 76},
{25, 78},
{25, 80},
{25, 82},
{25, 86},
{25, 90},
{25, 91},
{25, 94},
{25, 97},
{25, 99},
{25, 100},
{25, 105},
{25, 106},
{25, 107},
{25, 108},
{26, 30},
{26, 36},
{26, 37},
{26, 39},
{26, 40},
{26, 44},
{26, 48},
{26, 50},
{26, 51},
{26, 52},
{26, 55},
{26, 57},
{26, 58},
{26, 60},
{26, 61},
{26, 65},
{26, 68},
{26, 69},
{26, 71},
{26, 72},
{26, 73},
{26, 74},
{26, 77},
{26, 81},
{26, 87},
{26, 88},
{26, 91},
{26, 93},
{26, 97},
{26, 98},
{26, 101},
{26, 102},
{26, 103},
{26, 104},
{26, 108},
{26, 110},
{27, 28},
{27, 30},
{27, 33},
{27, 35},
{27, 39},
{27, 40},
{27, 45},
{27, 49},
{27, 50},
{27, 51},
{27, 54},
{27, 57},
{27, 59},
{27, 63},
{27, 64},
{27, 65},
{27, 66},
{27, 67},
{27, 68},
{27, 70},
{27, 71},
{27, 74},
{27, 76},
{27, 77},
{27, 79},
{27, 81},
{27, 82},
{27, 83},
{27, 84},
{27, 85},
{27, 86},
{27, 92},
{27, 93},
{27, 95},
{27, 101},
{27, 102},
{27, 104},
{27, 105},
{27, 109},
{27, 110},
{28, 29},
{28, 30},
{28, 34},
{28, 35},
{28, 36},
{28, 38},
{28, 39},
{28, 42},
{28, 43},
{28, 46},
{28, 49},
{28, 50},
{28, 51},
{28, 52},
{28, 53},
{28, 55},
{28, 57},
{28, 58},
{28, 61},
{28, 62},
{28, 63},
{28, 67},
{28, 68},
{28, 69},
{28, 72},
{28, 75},
{28, 76},
{28, 78},
{28, 79},
{28, 81},
{28, 82},
{28, 84},
{28, 85},
{28, 87},
{28, 91},
{28, 94},
{28, 97},
{28, 99},
{28, 101},
{28, 102},
{28, 104},
{28, 106},
{28, 110},
{29, 31},
{29, 32},
{29, 33},
{29, 37},
{29, 38},
{29, 41},
{29, 42},
{29, 45},
{29, 47},
{29, 48},
{29, 49},
{29, 53},
{29, 54},
{29, 59},
{29, 61},
{29, 62},
{29, 65},
{29, 72},
{29, 75},
{29, 76},
{29, 81},
{29, 84},
{29, 87},
{29, 88},
{29, 89},
{29, 90},
{29, 92},
{29, 93},
{29, 98},
{29, 99},
{29, 101},
{29, 103},
{29, 104},
{29, 107},
{29, 108},
{29, 110},
{30, 31},
{30, 32},
{30, 33},
{30, 34},
{30, 36},
{30, 38},
{30, 40},
{30, 41},
{30, 42},
{30, 44},
{30, 46},
{30, 49},
{30, 55},
{30, 57},
{30, 58},
{30, 59},
{30, 60},
{30, 61},
{30, 62},
{30, 65},
{30, 67},
{30, 70},
{30, 72},
{30, 76},
{30, 78},
{30, 79},
{30, 80},
{30, 82},
{30, 85},
{30, 86},
{30, 87},
{30, 89},
{30, 90},
{30, 91},
{30, 92},
{30, 93},
{30, 95},
{30, 98},
{30, 101},
{30, 102},
{30, 103},
{30, 107},
{30, 110},
{31, 33},
{31, 34},
{31, 35},
{31, 37},
{31, 41},
{31, 42},
{31, 43},
{31, 44},
{31, 47},
{31, 48},
{31, 49},
{31, 51},
{31, 53},
{31, 55},
{31, 56},
{31, 57},
{31, 60},
{31, 63},
{31, 66},
{31, 67},
{31, 69},
{31, 76},
{31, 77},
{31, 78},
{31, 79},
{31, 82},
{31, 83},
{31, 84},
{31, 85},
{31, 86},
{31, 87},
{31, 88},
{31, 89},
{31, 91},
{31, 92},
{31, 96},
{31, 100},
{31, 102},
{31, 103},
{31, 104},
{31, 107},
{31, 108},
{31, 109},
{32, 34},
{32, 35},
{32, 36},
{32, 42},
{32, 44},
{32, 46},
{32, 50},
{32, 52},
{32, 54},
{32, 55},
{32, 57},
{32, 60},
{32, 62},
{32, 63},
{32, 64},
{32, 65},
{32, 66},
{32, 67},
{32, 68},
{32, 69},
{32, 71},
{32, 72},
{32, 73},
{32, 75},
{32, 79},
{32, 81},
{32, 83},
{32, 84},
{32, 85},
{32, 86},
{32, 87},
{32, 88},
{32, 92},
{32, 94},
{32, 96},
{32, 97},
{32, 98},
{32, 99},
{32, 100},
{32, 101},
{32, 102},
{32, 104},
{32, 106},
{32, 107},
{32, 108},
{32, 109},
{33, 39},
{33, 40},
{33, 42},
{33, 43},
{33, 47},
{33, 48},
{33, 49},
{33, 50},
{33, 52},
{33, 55},
{33, 56},
{33, 57},
{33, 58},
{33, 60},
{33, 62},
{33, 63},
{33, 65},
{33, 66},
{33, 69},
{33, 72},
{33, 78},
{33, 79},
{33, 82},
{33, 83},
{33, 86},
{33, 89},
{33, 90},
{33, 94},
{33, 95},
{33, 96},
{33, 98},
{33, 99},
{33, 101},
{33, 103},
{33, 104},
{33, 107},
{34, 35},
{34, 36},
{34, 38},
{34, 39},
{34, 40},
{34, 42},
{34, 43},
{34, 45},
{34, 49},
{34, 52},
{34, 57},
{34, 59},
{34, 60},
{34, 62},
{34, 63},
{34, 64},
{34, 66},
{34, 67},
{34, 71},
{34, 76},
{34, 80},
{34, 81},
{34, 82},
{34, 83},
{34, 84},
{34, 87},
{34, 88},
{34, 93},
{34, 94},
{34, 95},
{34, 97},
{34, 98},
{34, 101},
{34, 103},
{34, 104},
{34, 106},
{34, 107},
{34, 108},
{35, 36},
{35, 37},
{35, 38},
{35, 47},
{35, 48},
{35, 50},
{35, 51},
{35, 53},
{35, 55},
{35, 56},
{35, 60},
{35, 61},
{35, 63},
{35, 64},
{35, 65},
{35, 66},
{35, 67},
{35, 68},
{35, 70},
{35, 72},
{35, 75},
{35, 78},
{35, 79},
{35, 83},
{35, 85},
{35, 86},
{35, 90},
{35, 95},
{35, 97},
{35, 98},
{35, 99},
{35, 100},
{35, 101},
{35, 103},
{35, 107},
{35, 108},
{35, 109},
{35, 110},
{36, 37},
{36, 39},
{36, 40},
{36, 41},
{36, 42},
{36, 43},
{36, 44},
{36, 45},
{36, 46},
{36, 48},
{36, 49},
{36, 50},
{36, 51},
{36, 52},
{36, 53},
{36, 57},
{36, 58},
{36, 59},
{36, 61},
{36, 67},
{36, 68},
{36, 69},
{36, 71},
{36, 73},
{36, 74},
{36, 75},
{36, 80},
{36, 81},
{36, 82},
{36, 86},
{36, 87},
{36, 91},
{36, 95},
{36, 97},
{36, 98},
{36, 101},
{36, 103},
{36, 105},
{36, 106},
{36, 108},
{36, 110},
{37, 38},
{37, 39},
{37, 42},
{37, 43},
{37, 48},
{37, 50},
{37, 51},
{37, 52},
{37, 55},
{37, 56},
{37, 57},
{37, 59},
{37, 62},
{37, 63},
{37, 65},
{37, 67},
{37, 69},
{37, 70},
{37, 72},
{37, 73},
{37, 74},
{37, 75},
{37, 78},
{37, 79},
{37, 81},
{37, 83},
{37, 84},
{37, 85},
{37, 86},
{37, 87},
{37, 88},
{37, 89},
{37, 90},
{37, 92},
{37, 93},
{37, 96},
{37, 98},
{37, 99},
{37, 101},
{37, 102},
{37, 103},
{37, 104},
{37, 108},
{37, 109},
{37, 110},
{38, 39},
{38, 40},
{38, 41},
{38, 43},
{38, 44},
{38, 45},
{38, 46},
{38, 47},
{38, 50},
{38, 51},
{38, 52},
{38, 54},
{38, 55},
{38, 57},
{38, 58},
{38, 61},
{38, 62},
{38, 64},
{38, 65},
{38, 67},
{38, 68},
{38, 70},
{38, 73},
{38, 74},
{38, 77},
{38, 81},
{38, 83},
{38, 85},
{38, 86},
{38, 88},
{38, 90},
{38, 93},
{38, 97},
{38, 98},
{38, 99},
{38, 100},
{38, 101},
{38, 103},
{38, 104},
{38, 107},
{38, 109},
{39, 41},
{39, 43},
{39, 46},
{39, 53},
{39, 57},
{39, 58},
{39, 60},
{39, 64},
{39, 65},
{39, 66},
{39, 67},
{39, 69},
{39, 70},
{39, 72},
{39, 76},
{39, 78},
{39, 79},
{39, 80},
{39, 82},
{39, 87},
{39, 93},
{39, 95},
{39, 97},
{39, 98},
{39, 99},
{39, 100},
{39, 101},
{39, 104},
{39, 107},
{39, 109},
{39, 110},
{40, 41},
{40, 42},
{40, 43},
{40, 44},
{40, 49},
{40, 52},
{40, 53},
{40, 56},
{40, 58},
{40, 62},
{40, 65},
{40, 66},
{40, 67},
{40, 70},
{40, 72},
{40, 74},
{40, 75},
{40, 76},
{40, 77},
{40, 78},
{40, 80},
{40, 82},
{40, 83},
{40, 84},
{40, 85},
{40, 86},
{40, 87},
{40, 89},
{40, 91},
{40, 93},
{40, 94},
{40, 95},
{40, 96},
{40, 98},
{40, 102},
{40, 105},
{40, 107},
{40, 108},
{40, 109},
{40, 110},
{41, 42},
{41, 44},
{41, 48},
{41, 49},
{41, 51},
{41, 54},
{41, 56},
{41, 60},
{41, 61},
{41, 62},
{41, 63},
{41, 64},
{41, 65},
{41, 66},
{41, 67},
{41, 69},
{41, 70},
{41, 72},
{41, 73},
{41, 74},
{41, 77},
{41, 78},
{41, 83},
{41, 85},
{41, 87},
{41, 88},
{41, 92},
{41, 95},
{41, 97},
{41, 98},
{41, 101},
{41, 105},
{41, 107},
{41, 109},
{41, 110},
{42, 43},
{42, 46},
{42, 47},
{42, 50},
{42, 52},
{42, 53},
{42, 54},
{42, 58},
{42, 59},
{42, 60},
{42, 61},
{42, 63},
{42, 64},
{42, 69},
{42, 71},
{42, 72},
{42, 74},
{42, 75},
{42, 77},
{42, 81},
{42, 82},
{42, 85},
{42, 86},
{42, 90},
{42, 91},
{42, 95},
{42, 97},
{42, 100},
{42, 101},
{42, 102},
{42, 103},
{42, 104},
{42, 106},
{42, 107},
{42, 108},
{42, 109},
{43, 48},
{43, 49},
{43, 50},
{43, 52},
{43, 53},
{43, 54},
{43, 55},
{43, 56},
{43, 58},
{43, 59},
{43, 61},
{43, 62},
{43, 65},
{43, 67},
{43, 68},
{43, 73},
{43, 76},
{43, 77},
{43, 78},
{43, 79},
{43, 80},
{43, 81},
{43, 82},
{43, 83},
{43, 84},
{43, 88},
{43, 89},
{43, 91},
{43, 92},
{43, 93},
{43, 97},
{43, 100},
{43, 102},
{43, 103},
{43, 106},
{43, 109},
{44, 45},
{44, 48},
{44, 49},
{44, 50},
{44, 52},
{44, 54},
{44, 56},
{44, 58},
{44, 60},
{44, 62},
{44, 63},
{44, 69},
{44, 70},
{44, 71},
{44, 72},
{44, 73},
{44, 75},
{44, 77},
{44, 82},
{44, 86},
{44, 88},
{44, 90},
{44, 91},
{44, 96},
{44, 97},
{44, 98},
{44, 99},
{44, 100},
{44, 101},
{44, 104},
{44, 106},
{44, 110},
{45, 46},
{45, 47},
{45, 48},
{45, 49},
{45, 52},
{45, 54},
{45, 55},
{45, 56},
{45, 57},
{45, 58},
{45, 59},
{45, 60},
{45, 62},
{45, 67},
{45, 68},
{45, 69},
{45, 70},
{45, 71},
{45, 72},
{45, 73},
{45, 82},
{45, 84},
{45, 87},
{45, 88},
{45, 89},
{45, 91},
{45, 92},
{45, 93},
{45, 99},
{45, 102},
{45, 103},
{45, 106},
{45, 108},
{45, 109},
{46, 48},
{46, 55},
{46, 57},
{46, 58},
{46, 69},
{46, 71},
{46, 72},
{46, 74},
{46, 76},
{46, 77},
{46, 78},
{46, 79},
{46, 82},
{46, 85},
{46, 86},
{46, 87},
{46, 88},
{46, 89},
{46, 90},
{46, 91},
{46, 92},
{46, 93},
{46, 94},
{46, 95},
{46, 97},
{46, 99},
{46, 101},
{46, 102},
{46, 103},
{46, 104},
{46, 105},
{46, 106},
{46, 107},
{46, 109},
{47, 48},
{47, 49},
{47, 50},
{47, 51},
{47, 53},
{47, 57},
{47, 59},
{47, 60},
{47, 63},
{47, 64},
{47, 65},
{47, 66},
{47, 69},
{47, 71},
{47, 72},
{47, 76},
{47, 77},
{47, 82},
{47, 84},
{47, 85},
{47, 93},
{47, 96},
{47, 97},
{47, 105},
{47, 106},
{47, 107},
{47, 108},
{48, 54},
{48, 56},
{48, 58},
{48, 60},
{48, 61},
{48, 62},
{48, 64},
{48, 66},
{48, 69},
{48, 71},
{48, 77},
{48, 79},
{48, 81},
{48, 82},
{48, 83},
{48, 85},
{48, 89},
{48, 90},
{48, 92},
{48, 93},
{48, 95},
{48, 96},
{48, 98},
{48, 99},
{48, 100},
{48, 101},
{48, 103},
{48, 104},
{48, 105},
{48, 106},
{48, 107},
{49, 50},
{49, 56},
{49, 57},
{49, 59},
{49, 64},
{49, 65},
{49, 70},
{49, 72},
{49, 73},
{49, 74},
{49, 75},
{49, 76},
{49, 77},
{49, 84},
{49, 87},
{49, 88},
{49, 91},
{49, 92},
{49, 93},
{49, 94},
{49, 96},
{49, 100},
{49, 101},
{49, 103},
{49, 104},
{50, 51},
{50, 53},
{50, 56},
{50, 58},
{50, 61},
{50, 64},
{50, 65},
{50, 68},
{50, 70},
{50, 75},
{50, 79},
{50, 80},
{50, 81},
{50, 83},
{50, 86},
{50, 88},
{50, 89},
{50, 90},
{50, 91},
{50, 93},
{50, 96},
{50, 100},
{50, 102},
{50, 104},
{50, 105},
{50, 106},
{50, 107},
{50, 108},
{50, 109},
{51, 52},
{51, 53},
{51, 56},
{51, 57},
{51, 58},
{51, 61},
{51, 66},
{51, 68},
{51, 76},
{51, 77},
{51, 79},
{51, 80},
{51, 81},
{51, 83},
{51, 85},
{51, 86},
{51, 87},
{51, 89},
{51, 95},
{51, 97},
{51, 98},
{51, 101},
{51, 104},
{51, 106},
{51, 107},
{51, 108},
{51, 110},
{52, 56},
{52, 58},
{52, 59},
{52, 61},
{52, 66},
{52, 67},
{52, 68},
{52, 70},
{52, 72},
{52, 73},
{52, 74},
{52, 78},
{52, 82},
{52, 84},
{52, 86},
{52, 87},
{52, 89},
{52, 90},
{52, 94},
{52, 95},
{52, 96},
{52, 98},
{52, 100},
{52, 103},
{52, 105},
{52, 107},
{52, 108},
{52, 109},
{53, 55},
{53, 56},
{53, 57},
{53, 58},
{53, 60},
{53, 62},
{53, 63},
{53, 64},
{53, 67},
{53, 69},
{53, 72},
{53, 73},
{53, 74},
{53, 75},
{53, 76},
{53, 77},
{53, 79},
{53, 85},
{53, 88},
{53, 90},
{53, 91},
{53, 93},
{53, 94},
{53, 96},
{53, 99},
{53, 101},
{53, 103},
{53, 105},
{53, 106},
{53, 107},
{53, 109},
{53, 110},
{54, 55},
{54, 59},
{54, 60},
{54, 61},
{54, 63},
{54, 64},
{54, 65},
{54, 68},
{54, 73},
{54, 75},
{54, 79},
{54, 81},
{54, 83},
{54, 92},
{54, 94},
{54, 95},
{54, 99},
{54, 102},
{54, 106},
{54, 108},
{54, 109},
{55, 59},
{55, 63},
{55, 65},
{55, 67},
{55, 68},
{55, 69},
{55, 74},
{55, 77},
{55, 79},
{55, 80},
{55, 84},
{55, 86},
{55, 87},
{55, 88},
{55, 89},
{55, 90},
{55, 92},
{55, 93},
{55, 94},
{55, 95},
{55, 98},
{55, 99},
{55, 100},
{55, 104},
{55, 105},
{55, 106},
{55, 107},
{55, 108},
{56, 58},
{56, 61},
{56, 63},
{56, 64},
{56, 65},
{56, 67},
{56, 69},
{56, 73},
{56, 74},
{56, 77},
{56, 78},
{56, 80},
{56, 83},
{56, 84},
{56, 86},
{56, 89},
{56, 90},
{56, 92},
{56, 93},
{56, 95},
{56, 96},
{56, 99},
{56, 100},
{56, 101},
{56, 103},
{56, 107},
{56, 108},
{56, 110},
{57, 58},
{57, 60},
{57, 61},
{57, 62},
{57, 65},
{57, 68},
{57, 70},
{57, 71},
{57, 77},
{57, 79},
{57, 84},
{57, 85},
{57, 86},
{57, 87},
{57, 92},
{57, 93},
{57, 95},
{57, 96},
{57, 98},
{57, 103},
{57, 104},
{57, 105},
{57, 106},
{57, 107},
{58, 60},
{58, 61},
{58, 65},
{58, 66},
{58, 68},
{58, 69},
{58, 70},
{58, 73},
{58, 74},
{58, 80},
{58, 82},
{58, 83},
{58, 85},
{58, 86},
{58, 88},
{58, 90},
{58, 92},
{58, 93},
{58, 94},
{58, 96},
{58, 97},
{58, 104},
{58, 105},
{58, 107},
{58, 108},
{59, 61},
{59, 62},
{59, 64},
{59, 65},
{59, 66},
{59, 67},
{59, 69},
{59, 70},
{59, 72},
{59, 73},
{59, 76},
{59, 78},
{59, 79},
{59, 80},
{59, 84},
{59, 86},
{59, 91},
{59, 92},
{59, 94},
{59, 95},
{59, 98},
{59, 99},
{59, 100},
{59, 102},
{59, 103},
{59, 104},
{59, 105},
{59, 107},
{59, 108},
{60, 61},
{60, 63},
{60, 67},
{60, 71},
{60, 73},
{60, 76},
{60, 78},
{60, 80},
{60, 83},
{60, 84},
{60, 85},
{60, 86},
{60, 87},
{60, 89},
{60, 90},
{60, 92},
{60, 93},
{60, 99},
{60, 101},
{60, 105},
{60, 106},
{60, 107},
{61, 62},
{61, 63},
{61, 64},
{61, 65},
{61, 68},
{61, 71},
{61, 73},
{61, 74},
{61, 75},
{61, 77},
{61, 78},
{61, 79},
{61, 80},
{61, 81},
{61, 85},
{61, 87},
{61, 89},
{61, 90},
{61, 92},
{61, 95},
{61, 96},
{61, 97},
{61, 99},
{61, 100},
{61, 102},
{61, 108},
{62, 64},
{62, 65},
{62, 66},
{62, 67},
{62, 69},
{62, 71},
{62, 73},
{62, 75},
{62, 80},
{62, 81},
{62, 82},
{62, 84},
{62, 85},
{62, 87},
{62, 94},
{62, 98},
{62, 99},
{62, 101},
{62, 104},
{62, 105},
{62, 107},
{62, 109},
{62, 110},
{63, 64},
{63, 65},
{63, 66},
{63, 69},
{63, 70},
{63, 71},
{63, 72},
{63, 74},
{63, 76},
{63, 77},
{63, 80},
{63, 83},
{63, 84},
{63, 85},
{63, 87},
{63, 88},
{63, 90},
{63, 91},
{63, 92},
{63, 94},
{63, 97},
{63, 103},
{63, 108},
{64, 68},
{64, 69},
{64, 70},
{64, 71},
{64, 76},
{64, 77},
{64, 78},
{64, 79},
{64, 81},
{64, 82},
{64, 84},
{64, 85},
{64, 87},
{64, 88},
{64, 91},
{64, 93},
{64, 94},
{64, 95},
{64, 98},
{64, 102},
{64, 105},
{64, 107},
{64, 108},
{64, 109},
{65, 66},
{65, 68},
{65, 72},
{65, 76},
{65, 77},
{65, 79},
{65, 82},
{65, 83},
{65, 84},
{65, 85},
{65, 87},
{65, 88},
{65, 89},
{65, 90},
{65, 91},
{65, 95},
{65, 97},
{65, 98},
{65, 99},
{65, 100},
{65, 103},
{65, 104},
{65, 106},
{65, 107},
{65, 108},
{66, 72},
{66, 77},
{66, 79},
{66, 81},
{66, 82},
{66, 83},
{66, 86},
{66, 87},
{66, 88},
{66, 89},
{66, 90},
{66, 91},
{66, 93},
{66, 97},
{66, 98},
{66, 102},
{66, 105},
{66, 106},
{66, 107},
{66, 109},
{67, 68},
{67, 70},
{67, 75},
{67, 77},
{67, 80},
{67, 81},
{67, 82},
{67, 85},
{67, 87},
{67, 89},
{67, 90},
{67, 94},
{67, 99},
{67, 100},
{67, 103},
{67, 105},
{67, 108},
{67, 109},
{68, 75},
{68, 76},
{68, 79},
{68, 82},
{68, 83},
{68, 84},
{68, 86},
{68, 90},
{68, 91},
{68, 92},
{68, 94},
{68, 96},
{68, 97},
{68, 98},
{68, 100},
{68, 101},
{68, 103},
{68, 104},
{68, 107},
{68, 108},
{69, 71},
{69, 72},
{69, 75},
{69, 77},
{69, 78},
{69, 80},
{69, 82},
{69, 84},
{69, 85},
{69, 87},
{69, 93},
{69, 94},
{69, 95},
{69, 96},
{69, 97},
{69, 98},
{69, 104},
{69, 105},
{69, 106},
{70, 73},
{70, 74},
{70, 75},
{70, 76},
{70, 79},
{70, 80},
{70, 81},
{70, 82},
{70, 83},
{70, 84},
{70, 85},
{70, 89},
{70, 90},
{70, 92},
{70, 94},
{70, 95},
{70, 98},
{70, 99},
{70, 104},
{71, 73},
{71, 76},
{71, 79},
{71, 81},
{71, 83},
{71, 84},
{71, 85},
{71, 88},
{71, 95},
{71, 98},
{71, 99},
{71, 104},
{71, 106},
{71, 109},
{72, 73},
{72, 75},
{72, 78},
{72, 80},
{72, 81},
{72, 82},
{72, 83},
{72, 84},
{72, 86},
{72, 90},
{72, 94},
{72, 96},
{72, 99},
{72, 101},
{72, 102},
{72, 103},
{72, 104},
{72, 106},
{72, 107},
{73, 74},
{73, 77},
{73, 79},
{73, 83},
{73, 87},
{73, 88},
{73, 89},
{73, 93},
{73, 95},
{73, 96},
{73, 97},
{73, 99},
{73, 102},
{73, 106},
{73, 109},
{73, 110},
{74, 75},
{74, 76},
{74, 77},
{74, 79},
{74, 81},
{74, 84},
{74, 86},
{74, 87},
{74, 88},
{74, 89},
{74, 91},
{74, 92},
{74, 93},
{74, 94},
{74, 96},
{74, 97},
{74, 99},
{74, 102},
{74, 105},
{74, 108},
{75, 76},
{75, 77},
{75, 80},
{75, 81},
{75, 82},
{75, 83},
{75, 85},
{75, 88},
{75, 89},
{75, 90},
{75, 91},
{75, 92},
{75, 93},
{75, 96},
{75, 97},
{75, 98},
{75, 99},
{75, 105},
{75, 108},
{76, 77},
{76, 80},
{76, 81},
{76, 82},
{76, 83},
{76, 84},
{76, 86},
{76, 88},
{76, 90},
{76, 96},
{76, 98},
{76, 100},
{76, 103},
{76, 106},
{76, 107},
{76, 108},
{77, 82},
{77, 84},
{77, 85},
{77, 86},
{77, 89},
{77, 93},
{77, 94},
{77, 100},
{77, 102},
{77, 103},
{77, 105},
{77, 106},
{77, 107},
{77, 109},
{77, 110},
{78, 79},
{78, 80},
{78, 81},
{78, 83},
{78, 84},
{78, 85},
{78, 88},
{78, 90},
{78, 91},
{78, 92},
{78, 93},
{78, 95},
{78, 96},
{78, 97},
{78, 100},
{78, 104},
{78, 105},
{78, 106},
{78, 107},
{78, 109},
{78, 110},
{79, 80},
{79, 81},
{79, 82},
{79, 84},
{79, 87},
{79, 88},
{79, 89},
{79, 91},
{79, 92},
{79, 94},
{79, 95},
{79, 98},
{79, 99},
{79, 100},
{79, 101},
{79, 103},
{79, 104},
{79, 107},
{79, 108},
{79, 109},
{80, 81},
{80, 84},
{80, 87},
{80, 88},
{80, 89},
{80, 90},
{80, 92},
{80, 98},
{80, 99},
{80, 102},
{80, 105},
{80, 106},
{80, 107},
{80, 108},
{81, 84},
{81, 85},
{81, 86},
{81, 89},
{81, 92},
{81, 94},
{81, 95},
{81, 97},
{81, 99},
{81, 100},
{81, 101},
{81, 102},
{81, 103},
{81, 106},
{81, 107},
{81, 108},
{81, 109},
{81, 110},
{82, 83},
{82, 84},
{82, 87},
{82, 88},
{82, 90},
{82, 91},
{82, 92},
{82, 93},
{82, 95},
{82, 98},
{82, 99},
{82, 100},
{82, 101},
{82, 103},
{82, 104},
{82, 105},
{82, 109},
{82, 110},
{83, 84},
{83, 86},
{83, 87},
{83, 88},
{83, 89},
{83, 90},
{83, 91},
{83, 92},
{83, 96},
{83, 99},
{83, 100},
{83, 103},
{83, 106},
{83, 107},
{83, 108},
{83, 109},
{83, 110},
{84, 85},
{84, 88},
{84, 89},
{84, 90},
{84, 92},
{84, 93},
{84, 94},
{84, 95},
{84, 96},
{84, 98},
{84, 99},
{84, 100},
{84, 104},
{85, 87},
{85, 88},
{85, 90},
{85, 92},
{85, 93},
{85, 94},
{85, 99},
{85, 102},
{85, 105},
{85, 109},
{86, 87},
{86, 88},
{86, 90},
{86, 95},
{86, 98},
{86, 99},
{86, 104},
{86, 108},
{86, 109},
{87, 88},
{87, 90},
{87, 91},
{87, 92},
{87, 93},
{87, 94},
{87, 95},
{87, 96},
{87, 100},
{87, 101},
{87, 102},
{87, 104},
{87, 105},
{87, 107},
{88, 89},
{88, 91},
{88, 92},
{88, 96},
{88, 98},
{88, 100},
{88, 102},
{88, 103},
{88, 108},
{89, 90},
{89, 92},
{89, 93},
{89, 94},
{89, 96},
{89, 97},
{89, 98},
{89, 99},
{89, 104},
{89, 105},
{89, 109},
{89, 110},
{90, 92},
{90, 93},
{90, 100},
{90, 101},
{90, 102},
{90, 104},
{90, 107},
{90, 108},
{90, 110},
{91, 92},
{91, 94},
{91, 97},
{91, 100},
{91, 101},
{91, 102},
{91, 104},
{91, 106},
{91, 107},
{91, 110},
{92, 93},
{92, 94},
{92, 95},
{92, 97},
{92, 98},
{92, 101},
{92, 102},
{92, 104},
{92, 105},
{92, 109},
{93, 94},
{93, 95},
{93, 99},
{93, 100},
{93, 102},
{93, 103},
{93, 104},
{93, 105},
{93, 106},
{93, 108},
{93, 109},
{94, 97},
{94, 98},
{94, 99},
{94, 100},
{94, 102},
{94, 103},
{94, 104},
{94, 105},
{94, 106},
{94, 110},
{95, 98},
{95, 100},
{95, 101},
{95, 102},
{95, 108},
{95, 109},
{96, 97},
{96, 98},
{96, 99},
{96, 100},
{96, 102},
{96, 106},
{96, 107},
{96, 108},
{97, 98},
{97, 101},
{97, 104},
{97, 106},
{97, 110},
{98, 100},
{98, 103},
{98, 104},
{98, 105},
{98, 106},
{98, 107},
{98, 108},
{99, 100},
{99, 103},
{99, 104},
{99, 106},
{99, 107},
{99, 109},
{100, 102},
{100, 106},
{100, 108},
{100, 110},
{101, 102},
{101, 103},
{101, 106},
{101, 108},
{102, 105},
{102, 106},
{102, 110},
{103, 106},
{103, 108},
{103, 110},
{104, 105},
{104, 106},
{104, 110},
{105, 106},
{105, 109},
{106, 109},
{106, 110},
{107, 108},
{108, 109}}
